sat
(:arith-conflicts     1
 :arith-lower         63
 :arith-make-feasible 28
 :arith-max-columns   36
 :arith-max-rows      13
 :arith-upper         41
 :binary-propagations 99
 :conflicts           5
 :decisions           26
 :final-checks        1
 :max-memory          18.59
 :memory              18.19
 :mk-bool-var         63
 :mk-clause           1
 :mk-clause-binary    86
 :num-allocs          106220
 :num-checks          1
 :propagations        99
 :rlimit-count        5606
 :solve-eqs-elim-vars 14
 :solve-eqs-steps     44
 :time                0.00
 :total-time          0.01)
